results_rootrelaxation/bin006_090_004.srr.sol
solution status: optimal solution found
objective value:                                   11
_var3_                                              1 	(obj:2)
_var31_                                             1 	(obj:3)
_var38_                                             1 	(obj:2)
_var40_                                             1 	(obj:3)
_var49_                                             1 	(obj:1)
